Normalized Data/p10_20_normalized_splitx10_0.vrp
NAME:p10_20_NORMALIZED_splitx10_
BEST_KNOWN: 0
COMMENT: 0
DIMENSION: 845
CAPACITY: 1000
EDGE_WEIGHT_FORMAT: FUNCTION
EDGE_WEIGHT_TYPE: EXACT_2D
NODE_COORD_SECTION
1 0.00000 0.00000
2 -38 12
3 -38 12
4 -38 12
5 -38 12
6 -38 12
7 -38 12
8 30 11
9 30 11
10 30 11
11 -15 -2
12 -15 -2
13 -15 -2
14 -15 -2
15 -21 -35
16 -21 -35
17 -21 -35
18 -21 -35
19 5 8
20 5 8
21 4 -50
22 4 -50
23 4 -50
24 4 -50
25 4 -50
26 4 -50
27 -40 -26
28 -40 -26
29 -40 -26
30 -40 -26
31 -40 -26
32 -40 -26
33 -40 -26
34 -2 14
35 -2 14
36 -2 14
37 -2 14
38 -2 14
39 16 -42
40 16 -42
41 16 -42
42 16 -42
43 16 -42
44 16 -42
45 4 -3
46 4 -3
47 4 -3
48 -23 -48
49 -23 -48
50 -23 -48
51 -23 -48
52 -23 -48
53 10 3
54 10 3
55 10 3
56 41 -31
57 41 -31
58 41 -31
59 41 -31
60 41 -31
61 18 -37
62 18 -37
63 18 -37
64 18 -37
65 18 -37
66 -21 -27
67 -21 -27
68 -21 -27
69 -21 -27
70 -33 10
71 -33 10
72 -33 10
73 -33 10
74 -33 10
75 -49 -35
76 -49 -35
77 -49 -35
78 -49 -35
79 -49 -35
80 -49 -35
81 -49 -35
82 23 -41
83 23 -41
84 23 -41
85 23 -41
86 23 -41
87 23 -41
88 41 29
89 41 29
90 30 -4
91 30 -4
92 30 -4
93 30 -4
94 30 -4
95 30 -4
96 4 -13
97 4 -13
98 -49 -15
99 -49 -15
100 -49 -15
101 -49 -15
102 -49 -15
103 34 2
104 34 2
105 34 2
106 34 2
107 16 40
108 16 40
109 16 40
110 16 40
111 16 40
112 16 40
113 5 -46
114 5 -46
115 5 -46
116 5 -46
117 5 -46
118 5 -46
119 5 -46
120 -1 -4
121 -1 -4
122 -1 -4
123 -1 -4
124 -1 -4
125 -23 -16
126 -23 -16
127 -23 -16
128 -23 -16
129 -23 -16
130 3 -43
131 3 -43
132 3 -43
133 -24 -23
134 -24 -23
135 -24 -23
136 -15 -40
137 -15 -40
138 -15 -40
139 1 40
140 1 40
141 1 40
142 1 40
143 1 40
144 1 40
145 43 -46
146 43 -46
147 43 -46
148 43 -46
149 43 -46
150 -3 44
151 -3 44
152 -3 44
153 -3 44
154 24 34
155 24 34
156 24 34
157 24 34
158 24 34
159 24 34
160 32 -37
161 32 -37
162 32 -37
163 32 -37
164 32 -37
165 -34 -50
166 -34 -50
167 -14 50
168 -14 50
169 -14 50
170 -14 50
171 -16 48
172 -16 48
173 -16 48
174 -16 48
175 -6 16
176 -6 16
177 -6 16
178 -6 16
179 -6 16
180 -48 49
181 -48 49
182 -48 49
183 -48 49
184 -48 49
185 -48 49
186 -48 49
187 17 43
188 17 43
189 17 43
190 50 -34
191 50 -34
192 50 -34
193 50 -34
194 50 -34
195 50 -34
196 50 -34
197 41 45
198 41 45
199 41 45
200 41 45
201 12 -11
202 12 -11
203 16 50
204 16 50
205 16 50
206 16 50
207 16 50
208 -38 -10
209 -38 -10
210 -38 -10
211 -38 -10
212 34 47
213 34 47
214 34 47
215 -11 2
216 -11 2
217 -11 2
218 -11 2
219 -11 2
220 -11 2
221 25 -29
222 25 -29
223 25 -29
224 25 -29
225 35 -34
226 35 -34
227 35 -34
228 45 11
229 45 11
230 45 11
231 -23 -12
232 -23 -12
233 -23 -12
234 -23 -12
235 -10 -13
236 -10 -13
237 -10 37
238 -10 37
239 -10 37
240 -10 37
241 -10 37
242 -10 37
243 20 -32
244 20 -32
245 20 -32
246 -28 -15
247 -28 -15
248 -28 -15
249 33 -9
250 33 -9
251 33 -9
252 33 -9
253 33 -9
254 33 -9
255 -39 -8
256 -39 -8
257 46 -19
258 46 -19
259 46 -19
260 12 22
261 12 22
262 12 22
263 12 22
264 12 22
265 12 22
266 34 1
267 34 1
268 34 1
269 34 1
270 34 1
271 34 1
272 -2 -50
273 -2 -50
274 -2 -50
275 -2 -50
276 36 -29
277 36 -29
278 36 -29
279 36 -29
280 36 -29
281 36 -29
282 -36 -5
283 -36 -5
284 -36 -5
285 -36 -5
286 -36 -5
287 -38 5
288 -38 5
289 -38 5
290 -38 5
291 -19 43
292 -19 43
293 -19 43
294 -19 43
295 8 18
296 8 18
297 8 18
298 -33 14
299 -33 14
300 -33 14
301 -33 14
302 -33 14
303 -33 14
304 -33 14
305 21 5
306 21 5
307 21 5
308 21 5
309 21 5
310 -27 -7
311 -27 -7
312 -49 4
313 -49 4
314 -49 4
315 -49 4
316 -49 4
317 -49 4
318 -49 4
319 -21 -48
320 -21 -48
321 7 -1
322 7 -1
323 7 -1
324 7 -1
325 7 -1
326 -45 8
327 -45 8
328 -45 8
329 25 -41
330 25 -41
331 25 -41
332 25 -41
333 13 -20
334 13 -20
335 13 -20
336 13 -20
337 -30 15
338 -30 15
339 -30 15
340 -30 15
341 -7 -13
342 -7 -13
343 -7 -13
344 -32 36
345 -32 36
346 -32 36
347 29 -22
348 29 -22
349 -11 -18
350 -11 -18
351 -11 -18
352 -11 -18
353 -39 -44
354 -39 -44
355 -39 -44
356 -39 -44
357 -39 -44
358 5 47
359 5 47
360 5 47
361 5 47
362 26 8
363 26 8
364 26 8
365 26 8
366 26 8
367 29 36
368 29 36
369 -33 37
370 -33 37
371 -1 29
372 -1 29
373 -1 29
374 -1 29
375 -1 29
376 -1 29
377 -1 29
378 -5 -33
379 -5 -33
380 -5 -33
381 -5 -33
382 -5 -33
383 -5 -33
384 -50 -20
385 -50 -20
386 -50 -20
387 -50 -20
388 -50 -20
389 -50 -20
390 2 -49
391 2 -49
392 2 -49
393 39 -7
394 39 -7
395 39 -7
396 -34 -17
397 -34 -17
398 -34 -17
399 0 -19
400 0 -19
401 0 -19
402 -41 25
403 -41 25
404 -41 25
405 -41 25
406 -41 25
407 -41 25
408 -41 25
409 -24 35
410 -24 35
411 -24 35
412 -24 35
413 -24 35
414 -24 35
415 -37 -23
416 -37 -23
417 -37 -23
418 19 -44
419 19 -44
420 19 -44
421 19 -44
422 19 -44
423 -27 -15
424 -27 -15
425 -27 -15
426 -12 -23
427 -12 -23
428 -12 -23
429 -43 23
430 -43 23
431 -43 23
432 -43 23
433 -43 23
434 -38 -13
435 -38 -13
436 -38 -13
437 33 26
438 33 26
439 33 26
440 33 26
441 33 26
442 33 26
443 14 -30
444 14 -30
445 14 -30
446 14 -30
447 14 -30
448 40 -39
449 40 -39
450 40 -39
451 40 -39
452 23 35
453 23 35
454 23 35
455 23 35
456 23 35
457 23 35
458 -30 27
459 -30 27
460 -30 27
461 -30 27
462 -30 27
463 -30 27
464 -30 27
465 -10 -17
466 -10 -17
467 -1 40
468 -1 40
469 -1 40
470 -1 40
471 -1 40
472 -1 40
473 -1 40
474 43 21
475 43 21
476 10 7
477 10 7
478 10 7
479 10 7
480 -28 24
481 -28 24
482 -28 24
483 -28 24
484 -28 24
485 -28 24
486 -37 33
487 -37 33
488 -37 33
489 -37 33
490 -37 33
491 -6 -13
492 -6 -13
493 -22 -45
494 -22 -45
495 -22 -45
496 -22 -45
497 -22 -45
498 -40 -2
499 -40 -2
500 -40 -2
501 -28 11
502 -28 11
503 -28 11
504 11 -24
505 11 -24
506 11 -24
507 11 -24
508 11 -24
509 11 -24
510 44 -41
511 44 -41
512 44 -41
513 44 -41
514 44 -41
515 44 -41
516 5 -35
517 5 -35
518 5 -35
519 -9 -45
520 -9 -45
521 -9 -45
522 -9 -45
523 -9 -45
524 -17 -48
525 -17 -48
526 -17 -48
527 -17 -48
528 -17 -48
529 -21 -33
530 -21 -33
531 -21 -33
532 -21 -33
533 -21 -33
534 33 9
535 33 9
536 33 9
537 33 9
538 33 9
539 23 17
540 23 17
541 -30 -33
542 -30 -33
543 -30 -33
544 -30 -33
545 -30 -33
546 20 -8
547 20 -8
548 20 -8
549 20 -8
550 20 -8
551 20 -8
552 19 -17
553 19 -17
554 19 -17
555 19 -17
556 19 -17
557 19 -17
558 -7 -41
559 -7 -41
560 -7 -41
561 -7 -41
562 -7 -41
563 -7 -41
564 30 34
565 30 34
566 30 34
567 30 34
568 30 34
569 30 34
570 -36 0
571 -36 0
572 -36 0
573 -36 0
574 14 -18
575 50 -8
576 50 -8
577 -48 5
578 -48 5
579 41 -7
580 41 -7
581 41 -7
582 41 -7
583 41 -7
584 41 -7
585 -35 -5
586 -35 -5
587 -35 -5
588 -35 -5
589 -7 -38
590 -7 -38
591 27 -30
592 27 -30
593 27 -30
594 -41 -19
595 -41 -19
596 4 30
597 4 30
598 4 30
599 4 30
600 4 30
601 4 30
602 43 -42
603 43 -42
604 43 -42
605 43 -42
606 43 -42
607 43 -42
608 18 32
609 18 32
610 18 32
611 18 32
612 -25 44
613 -25 44
614 -25 44
615 -25 44
616 -25 44
617 33 -46
618 33 -46
619 33 -46
620 33 -46
621 25 -28
622 25 -28
623 25 -28
624 4 -36
625 4 -36
626 4 -36
627 4 -36
628 4 -36
629 -44 -32
630 -44 -32
631 11 -5
632 11 -5
633 11 -5
634 11 -5
635 11 -5
636 11 -5
637 -35 -1
638 -35 -1
639 -35 -1
640 -50 18
641 -50 18
642 -50 18
643 -50 18
644 -19 13
645 -19 13
646 -19 13
647 16 30
648 16 30
649 16 30
650 16 30
651 16 30
652 16 30
653 21 9
654 21 9
655 21 9
656 21 9
657 32 6
658 32 6
659 32 6
660 32 6
661 -2 -39
662 -2 -39
663 -2 -39
664 -2 -39
665 -2 -39
666 -2 -39
667 -2 -39
668 41 -39
669 41 -39
670 41 -39
671 41 -39
672 43 -36
673 43 -36
674 -31 -15
675 -31 -15
676 33 32
677 33 32
678 33 32
679 33 32
680 -38 43
681 -38 43
682 -38 43
683 -18 0
684 -18 0
685 -18 0
686 23 -33
687 23 -33
688 23 -33
689 23 -33
690 49 -4
691 49 -4
692 49 -4
693 49 -4
694 49 -4
695 49 -4
696 -33 14
697 -33 14
698 -33 14
699 -33 14
700 -33 14
701 -33 14
702 -33 14
703 -41 23
704 -41 23
705 -41 23
706 -41 23
707 -32 7
708 -32 7
709 -32 7
710 -32 7
711 -32 7
712 -32 7
713 32 -29
714 32 -29
715 32 -29
716 32 -29
717 -29 -27
718 -29 -27
719 -29 -27
720 -29 -27
721 15 42
722 15 42
723 15 42
724 15 42
725 -50 -12
726 -50 -12
727 -50 -12
728 -50 -12
729 -50 -12
730 -50 -12
731 8 -11
732 8 -11
733 8 -11
734 8 -11
735 8 -11
736 8 -11
737 41 -17
738 41 -17
739 41 -17
740 41 -17
741 41 -17
742 41 -17
743 2 40
744 2 40
745 2 40
746 2 40
747 2 40
748 -6 50
749 -6 50
750 19 22
751 19 22
752 19 22
753 -15 16
754 -15 16
755 24 -20
756 24 -20
757 24 -20
758 24 -20
759 9 -8
760 9 -8
761 -10 12
762 -10 12
763 -10 12
764 -10 12
765 -10 12
766 28 -33
767 28 -33
768 28 -33
769 28 -33
770 -18 1
771 -18 1
772 26 3
773 26 3
774 26 3
775 26 3
776 26 3
777 46 -21
778 46 -21
779 46 -21
780 -25 12
781 -25 12
782 -25 12
783 -46 -15
784 -46 -15
785 -46 -15
786 47 48
787 47 48
788 -33 -23
789 -33 -23
790 -33 -23
791 27 -27
792 27 -27
793 27 -27
794 27 -27
795 27 -27
796 -42 16
797 -42 16
798 -42 16
799 -17 30
800 -17 30
801 5 18
802 5 18
803 5 18
804 5 18
805 -2 -8
806 -2 -8
807 31 -22
808 31 -22
809 31 -22
810 -6 -10
811 -6 -10
812 -6 -10
813 -6 -10
814 -6 -10
815 -6 -10
816 12 19
817 12 19
818 12 19
819 12 19
820 12 19
821 12 19
822 35 47
823 35 47
824 35 47
825 35 47
826 35 47
827 35 47
828 -39 -38
829 -39 -38
830 -39 -38
831 -39 -38
832 -39 -38
833 -39 -38
834 -29 22
835 41 45
836 41 45
837 41 45
838 41 45
839 41 45
840 41 45
841 19 28
842 19 28
843 19 28
844 19 28
845 19 28
DEMAND_SECTION
1 0
2 200
3 50
4 10
5 10
6 10
7 10
8 200
9 200
10 100
11 200
12 100
13 50
14 10
15 200
16 100
17 50
18 10
19 100
20 50
21 200
22 100
23 10
24 10
25 10
26 10
27 200
28 200
29 50
30 10
31 10
32 10
33 10
34 200
35 10
36 10
37 10
38 10
39 200
40 200
41 10
42 10
43 10
44 10
45 200
46 10
47 10
48 100
49 10
50 10
51 10
52 10
53 200
54 200
55 10
56 100
57 10
58 10
59 10
60 10
61 200
62 200
63 10
64 10
65 10
66 100
67 10
68 10
69 10
70 200
71 50
72 10
73 10
74 10
75 200
76 200
77 50
78 10
79 10
80 10
81 10
82 200
83 100
84 10
85 10
86 10
87 10
88 200
89 10
90 200
91 100
92 50
93 10
94 10
95 10
96 200
97 10
98 200
99 200
100 50
101 10
102 10
103 200
104 50
105 10
106 10
107 100
108 50
109 10
110 10
111 10
112 10
113 200
114 200
115 50
116 10
117 10
118 10
119 10
120 200
121 10
122 10
123 10
124 10
125 100
126 50
127 10
128 10
129 10
130 200
131 50
132 10
133 200
134 200
135 10
136 200
137 100
138 10
139 200
140 200
141 50
142 10
143 10
144 10
145 200
146 200
147 10
148 10
149 10
150 100
151 50
152 10
153 10
154 100
155 50
156 10
157 10
158 10
159 10
160 200
161 100
162 10
163 10
164 10
165 100
166 50
167 100
168 10
169 10
170 10
171 100
172 50
173 10
174 10
175 100
176 10
177 10
178 10
179 10
180 200
181 100
182 50
183 10
184 10
185 10
186 10
187 200
188 100
189 50
190 200
191 200
192 50
193 10
194 10
195 10
196 10
197 100
198 50
199 10
200 10
201 200
202 100
203 200
204 10
205 10
206 10
207 10
208 200
209 10
210 10
211 10
212 200
213 10
214 10
215 200
216 200
217 10
218 10
219 10
220 10
221 200
222 200
223 50
224 10
225 100
226 50
227 10
228 100
229 10
230 10
231 100
232 50
233 10
234 10
235 200
236 200
237 100
238 50
239 10
240 10
241 10
242 10
243 200
244 200
245 10
246 200
247 200
248 100
249 200
250 50
251 10
252 10
253 10
254 10
255 200
256 10
257 200
258 200
259 50
260 200
261 200
262 50
263 10
264 10
265 10
266 200
267 200
268 50
269 10
270 10
271 10
272 200
273 200
274 50
275 10
276 200
277 50
278 10
279 10
280 10
281 10
282 200
283 10
284 10
285 10
286 10
287 200
288 100
289 50
290 10
291 100
292 50
293 10
294 10
295 100
296 50
297 10
298 200
299 100
300 50
301 10
302 10
303 10
304 10
305 100
306 50
307 10
308 10
309 10
310 200
311 200
312 200
313 200
314 50
315 10
316 10
317 10
318 10
319 200
320 10
321 200
322 200
323 50
324 10
325 10
326 200
327 100
328 10
329 100
330 10
331 10
332 10
333 200
334 200
335 50
336 10
337 200
338 200
339 50
340 10
341 200
342 200
343 10
344 200
345 100
346 10
347 200
348 50
349 200
350 100
351 10
352 10
353 200
354 100
355 50
356 10
357 10
358 200
359 100
360 10
361 10
362 200
363 10
364 10
365 10
366 10
367 200
368 200
369 100
370 50
371 200
372 200
373 50
374 10
375 10
376 10
377 10
378 100
379 50
380 10
381 10
382 10
383 10
384 200
385 100
386 50
387 10
388 10
389 10
390 200
391 200
392 50
393 200
394 100
395 50
396 200
397 200
398 50
399 200
400 200
401 100
402 200
403 200
404 50
405 10
406 10
407 10
408 10
409 200
410 100
411 10
412 10
413 10
414 10
415 200
416 200
417 50
418 200
419 100
420 10
421 10
422 10
423 200
424 100
425 50
426 200
427 100
428 10
429 200
430 100
431 10
432 10
433 10
434 200
435 100
436 10
437 200
438 50
439 10
440 10
441 10
442 10
443 100
444 50
445 10
446 10
447 10
448 100
449 50
450 10
451 10
452 200
453 100
454 10
455 10
456 10
457 10
458 200
459 200
460 50
461 10
462 10
463 10
464 10
465 200
466 200
467 200
468 100
469 50
470 10
471 10
472 10
473 10
474 100
475 50
476 200
477 200
478 50
479 10
480 200
481 100
482 50
483 10
484 10
485 10
486 200
487 200
488 50
489 10
490 10
491 200
492 50
493 200
494 100
495 50
496 10
497 10
498 200
499 100
500 50
501 100
502 50
503 10
504 100
505 50
506 10
507 10
508 10
509 10
510 200
511 100
512 50
513 10
514 10
515 10
516 200
517 200
518 100
519 100
520 50
521 10
522 10
523 10
524 200
525 100
526 50
527 10
528 10
529 200
530 100
531 50
532 10
533 10
534 200
535 200
536 50
537 10
538 10
539 200
540 200
541 200
542 100
543 50
544 10
545 10
546 200
547 100
548 10
549 10
550 10
551 10
552 200
553 100
554 50
555 10
556 10
557 10
558 200
559 50
560 10
561 10
562 10
563 10
564 100
565 50
566 10
567 10
568 10
569 10
570 200
571 50
572 10
573 10
574 200
575 200
576 10
577 200
578 100
579 200
580 200
581 10
582 10
583 10
584 10
585 200
586 100
587 50
588 10
589 200
590 10
591 200
592 10
593 10
594 200
595 10
596 200
597 200
598 50
599 10
600 10
601 10
602 200
603 200
604 10
605 10
606 10
607 10
608 200
609 200
610 50
611 10
612 100
613 50
614 10
615 10
616 10
617 200
618 10
619 10
620 10
621 200
622 200
623 100
624 100
625 10
626 10
627 10
628 10
629 100
630 50
631 200
632 200
633 10
634 10
635 10
636 10
637 200
638 100
639 50
640 200
641 50
642 10
643 10
644 100
645 50
646 10
647 200
648 100
649 50
650 10
651 10
652 10
653 100
654 10
655 10
656 10
657 100
658 10
659 10
660 10
661 200
662 100
663 50
664 10
665 10
666 10
667 10
668 200
669 200
670 10
671 10
672 200
673 200
674 200
675 200
676 200
677 200
678 10
679 10
680 200
681 200
682 50
683 200
684 10
685 10
686 200
687 50
688 10
689 10
690 100
691 50
692 10
693 10
694 10
695 10
696 200
697 200
698 50
699 10
700 10
701 10
702 10
703 200
704 10
705 10
706 10
707 100
708 50
709 10
710 10
711 10
712 10
713 200
714 50
715 10
716 10
717 200
718 100
719 10
720 10
721 100
722 50
723 10
724 10
725 200
726 100
727 10
728 10
729 10
730 10
731 200
732 200
733 10
734 10
735 10
736 10
737 100
738 50
739 10
740 10
741 10
742 10
743 100
744 10
745 10
746 10
747 10
748 200
749 200
750 200
751 200
752 10
753 100
754 50
755 100
756 50
757 10
758 10
759 100
760 50
761 200
762 10
763 10
764 10
765 10
766 200
767 100
768 10
769 10
770 200
771 10
772 100
773 10
774 10
775 10
776 10
777 200
778 200
779 50
780 200
781 200
782 10
783 200
784 10
785 10
786 200
787 50
788 200
789 100
790 50
791 200
792 200
793 10
794 10
795 10
796 200
797 200
798 100
799 200
800 100
801 100
802 50
803 10
804 10
805 100
806 50
807 100
808 50
809 10
810 200
811 100
812 50
813 10
814 10
815 10
816 200
817 100
818 50
819 10
820 10
821 10
822 200
823 100
824 10
825 10
826 10
827 10
828 200
829 100
830 10
831 10
832 10
833 10
834 200
835 200
836 200
837 50
838 10
839 10
840 10
841 200
842 50
843 10
844 10
845 10
DEPOT_SECTION
1
-1
EOF