Normalized Data/p10_20_normalized_splitx10_0.sol
844 -10 11 12 13 683 684 682 770 769 218 215 -18 476 475 477 478 53 54 52 -19 437 438 473 474 228 227 229 694 689 691 693 690 692 574 575 736 737 741 739 740 738 -29 31 629 628 76 78 80 75 74 79 77 831 827 828 830 832 829 -35 36 466 468 470 472 467 469 471 141 143 140 138 139 142 745 742 -41 38 39 40 43 42 419 418 420 421 417 64 60 -44 631 630 320 321 -46 45 758 759 201 200 731 735 730 733 734 804 -68 531 528 529 14 15 16 17 425 426 427 342 -69 70 73 72 71 4 5 6 1 3 2 287 286 709 706 710 708 -95 96 398 400 399 805 119 121 120 123 122 -109 111 108 107 110 106 188 187 186 203 204 206 202 205 721 722 720 723 801 -112 117 113 115 22 21 20 24 389 130 131 -126 128 125 32 30 28 26 27 416 414 415 -127 124 397 395 396 208 210 207 209 255 254 -129 114 118 116 23 25 391 390 274 271 273 272 -134 718 719 717 716 543 541 540 789 787 788 -135 137 136 559 557 560 562 561 558 588 589 382 380 377 378 379 381 -155 156 213 211 212 821 824 822 826 823 825 366 367 -171 748 747 151 152 150 149 360 359 358 357 744 743 746 -176 177 175 174 178 799 798 460 458 457 752 753 -194 192 195 190 189 191 193 55 56 57 59 58 279 277 280 275 276 278 755 757 756 -219 217 216 214 644 643 645 833 481 480 479 484 483 482 764 762 763 -220 221 223 222 621 622 620 -225 224 226 668 670 669 667 672 671 -230 246 247 245 674 673 -233 231 232 434 435 784 97 98 99 100 101 725 727 729 726 728 724 -234 235 348 465 464 -237 236 239 241 238 240 168 169 166 167 170 172 173 290 292 293 291 615 614 612 611 613 408 411 -248 582 579 581 580 578 583 394 392 393 -253 250 251 252 249 258 256 257 776 777 778 -259 261 260 803 800 802 37 34 33 761 760 -264 262 263 568 564 837 196 197 199 198 835 836 839 834 838 786 785 -269 265 268 267 270 104 103 105 656 657 659 658 536 534 535 533 537 305 -288 289 327 326 641 642 639 640 430 428 431 432 429 705 704 703 702 -294 296 295 647 649 648 646 840 841 844 842 815 819 -307 306 308 304 364 363 365 362 361 7 9 8 654 652 -309 310 284 282 283 285 281 587 586 584 585 -313 316 317 311 314 315 312 576 577 325 -323 322 324 90 93 94 89 92 91 266 102 775 772 771 774 773 -329 331 328 330 83 82 85 84 81 86 63 61 62 446 443 442 444 445 503 505 -370 371 373 375 376 372 374 600 595 598 596 599 597 -401 406 402 407 404 403 405 797 795 796 -409 412 410 413 343 344 345 369 368 488 485 486 -423 422 424 133 132 66 67 65 349 351 350 814 -433 783 782 388 385 383 387 384 386 594 593 -439 436 440 441 88 87 676 678 675 677 566 563 565 567 -447 448 450 449 604 606 601 603 605 602 510 512 514 513 509 511 715 -461 462 459 463 487 489 180 182 183 185 181 184 179 680 681 679 -490 491 341 340 809 810 811 -500 502 339 337 338 336 780 781 779 -501 699 701 698 697 299 696 303 302 695 301 297 300 298 700 707 711 -506 508 504 507 242 244 243 685 687 686 688 591 590 592 -517 515 516 623 625 624 626 627 665 661 666 663 660 -530 532 495 493 319 318 524 523 527 526 525 522 519 518 520 521 664 662 -544 542 352 354 353 355 356 165 164 49 50 51 48 47 496 494 492 812 813 -550 546 806 807 808 346 347 754 552 554 555 556 551 553 -571 572 569 570 499 498 497 638 636 637 -616 619 618 617 144 146 147 148 145 163 161 159 160 162 793 -635 632 634 633 547 549 548 545 573 334 333 332 335 732 -651 650 608 607 609 610 454 453 456 455 451 452 153 154 158 157 843 -653 655 539 538 750 751 749 817 818 816 820 -768 767 766 765 713 714 712 790 791 794 792 0 





OBJ=
5607.787
BEST_KNOWN=
0.000